21 37 
62 31 
22 59 
66 39 
87 78 
32 36 
26 58 
8 2 
54 43 
56 85 
50 65 
18 47 
43 4 
33 58 
14 0 
15 88 
38 29 
19 12 
41 37 
51 28 
15 36 
64 94 
94 24 
48 1 
67 4 
86 69 
21 4 
17 64 
61 2 
74 27 
3 89 
67 93 
71 87 
57 12 
24 9 
40 92 
97 56 
38 91 
81 86 
92 0 
42 31 
22 63 
87 91 
80 48 
93 54 
28 48 
96 95 
93 67 
34 51 
79 11 
